% File represents an instance of a Composite Structure problem to be solved by a CP framework
% Created on 2025-03-26 10:41:41.748
T = 54;
n = 25;
m = 40;
edges = [(1, 2),
(6, 7),
(11, 12),
(16, 17),
(21, 22),
(3, 2),
(8, 7),
(13, 12),
(17, 18),
(22, 23),
(4, 3),
(9, 8),
(13, 14),
(18, 19),
(23, 24),
(4, 5),
(9, 10),
(14, 15),
(19, 20),
(24, 25),
(1, 6),
(11, 6),
(16, 11),
(16, 21),
(2, 7),
(12, 7),
(17, 12),
(17, 22),
(3, 8),
(13, 8),
(13, 18),
(18, 23),
(4, 9),
(9, 14),
(14, 19),
(19, 24),
(5, 10),
(10, 15),
(15, 20),
(20, 25)];
counts = [|8, 14, 8, 14,
|8, 12, 8, 14,
|8, 14, 8, 18,
|8, 16, 8, 22,
|6, 14, 6, 22,
|8, 12, 8, 14,
|8, 10, 8, 14,
|8, 12, 8, 14,
|8, 14, 8, 18,
|6, 14, 6, 16,
|8, 14, 8, 14,
|8, 12, 8, 14,
|8, 14, 8, 14,
|8, 14, 8, 12,
|6, 12, 6, 12,
|10, 16, 10, 14,
|8, 16, 8, 14,
|8, 14, 8, 12,
|8, 14, 8, 6,
|6, 12, 6, 6,
|10, 14, 10, 14,
|8, 14, 8, 14,
|8, 14, 8, 8,
|6, 14, 6, 6,
|6, 12, 6, 2|];
